(declare-fun var0 () String)
(assert (str.in.re var0 (re.++ (re.union (re.* (str.to.re ":")) (re.* (str.to.re ";;"))) (re.++ (re.union (re.+ (str.to.re ".")) (re.* (str.to.re "///"))) (re.++ (re.* (re.union (str.to.re ",,") (str.to.re "---"))) (re.++ (re.* (re.union (str.to.re "*") (str.to.re "++"))) (re.++ (re.+ (re.* (str.to.re ")))"))) (re.++ (re.* (re.+ (str.to.re "("))) (re.++ (re.+ (re.* (str.to.re "'''"))) (re.++ (re.+ (re.union (str.to.re "%%%") (str.to.re "&&&"))) (re.++ (re.* (re.+ (str.to.re "$$"))) (re.++ (re.* (re.* (str.to.re "#"))) (re.++ (re.union (re.* (str.to.re "!")) (re.* (str.to.re """"""""))) (re.++ (re.* (re.union (str.to.re "YY") (str.to.re "ZZZ"))) (re.++ (re.* (re.union (str.to.re "WWW") (str.to.re "XX"))) (re.++ (re.* (re.* (str.to.re "V"))) (re.++ (re.* (re.+ (str.to.re "UU"))) (re.++ (re.union (re.+ (str.to.re "R")) (re.union (str.to.re "SSS") (str.to.re "TTT"))) (re.++ (re.* (re.* (str.to.re "QQQ"))) (re.++ (re.union (re.+ (str.to.re "OO")) (re.+ (str.to.re "PP"))) (re.++ (re.union (re.+ (str.to.re "LLL")) (re.union (str.to.re "M") (str.to.re "NNN"))) (re.++ (re.* (re.* (str.to.re "K"))) (re.++ (re.* (re.union (str.to.re "III") (str.to.re "JJ"))) (re.++ (re.+ (re.union (str.to.re "GG") (str.to.re "HH"))) (re.++ (re.+ (re.+ (str.to.re "FF"))) (re.++ (re.* (re.+ (str.to.re "EE"))) (re.++ (re.union (re.+ (str.to.re "BB")) (re.union (str.to.re "CC") (str.to.re "D"))) (re.++ (re.union (re.union (str.to.re "yyy") (str.to.re "zz")) (re.* (str.to.re "A"))) (re.++ (re.+ (re.* (str.to.re "xxx"))) (re.++ (re.union (re.* (str.to.re "uuu")) (re.union (str.to.re "v") (str.to.re "ww"))) (re.++ (re.+ (re.union (str.to.re "s") (str.to.re "tt"))) (re.++ (re.+ (re.+ (str.to.re "rrr"))) (re.++ (re.union (re.* (str.to.re "ppp")) (re.* (str.to.re "q"))) (re.++ (re.* (re.* (str.to.re "oo"))) (re.++ (re.* (re.+ (str.to.re "n"))) (re.++ (re.union (re.+ (str.to.re "ll")) (re.+ (str.to.re "mm"))) (re.++ (re.+ (re.+ (str.to.re "kk"))) (re.++ (re.+ (re.* (str.to.re "jjj"))) (re.++ (re.union (re.+ (str.to.re "hhh")) (re.* (str.to.re "i"))) (re.++ (re.+ (re.+ (str.to.re "g"))) (re.++ (re.union (re.* (str.to.re "e")) (re.+ (str.to.re "ff"))) (re.++ (re.union (re.union (str.to.re "bb") (str.to.re "c")) (re.* (str.to.re "d"))) (re.++ (re.+ (re.union (str.to.re "9") (str.to.re "aaa"))) (re.++ (re.* (re.union (str.to.re "777") (str.to.re "8"))) (re.++ (re.* (re.+ (str.to.re "6"))) (re.++ (re.union (re.* (str.to.re "333")) (re.union (str.to.re "4") (str.to.re "555"))) (re.++ (re.* (re.+ (str.to.re "2"))) (re.union (re.+ (str.to.re "000")) (re.* (str.to.re "111"))))))))))))))))))))))))))))))))))))))))))))))))))
(assert (not (str.in.re var0 (re.++ (re.+ (re.union (str.to.re "<<<") (str.to.re "="))) (re.++ (re.+ (re.union (str.to.re "::") (str.to.re ";"))) (re.++ (re.* (re.+ (str.to.re "/"))) (re.++ (re.+ (re.* (str.to.re "."))) (re.++ (re.+ (re.union (str.to.re ",,,") (str.to.re "---"))) (re.++ (re.+ (re.+ (str.to.re "++"))) (re.++ (re.+ (re.* (str.to.re "**"))) (re.++ (re.* (re.union (str.to.re "(") (str.to.re ")"))) (re.++ (re.union (re.union (str.to.re "$$$") (str.to.re "%")) (re.union (str.to.re "&") (str.to.re "'"))) (re.++ (re.union (re.* (str.to.re """""""")) (re.* (str.to.re "###"))) (re.++ (re.+ (re.union (str.to.re "Z") (str.to.re "!!"))) (re.++ (re.+ (re.* (str.to.re "Y"))) (re.++ (re.+ (re.+ (str.to.re "XX"))) (re.++ (re.+ (re.+ (str.to.re "WW"))) (re.++ (re.+ (re.* (str.to.re "VV"))) (re.++ (re.+ (re.union (str.to.re "TT") (str.to.re "UU"))) (re.++ (re.union (re.union (str.to.re "PP") (str.to.re "QQQ")) (re.union (str.to.re "RRR") (str.to.re "SS"))) (re.++ (re.+ (re.union (str.to.re "NNN") (str.to.re "OOO"))) (re.++ (re.union (re.* (str.to.re "LLL")) (re.* (str.to.re "MMM"))) (re.++ (re.union (re.union (str.to.re "II") (str.to.re "JJJ")) (re.+ (str.to.re "KKK"))) (re.++ (re.* (re.* (str.to.re "H"))) (re.++ (re.* (re.+ (str.to.re "GGG"))) (re.++ (re.* (re.* (str.to.re "F"))) (re.++ (re.* (re.+ (str.to.re "EE"))) (re.++ (re.* (re.* (str.to.re "DDD"))) (re.++ (re.* (re.+ (str.to.re "CCC"))) (re.++ (re.+ (re.union (str.to.re "AA") (str.to.re "BB"))) (re.++ (re.union (re.+ (str.to.re "yyy")) (re.* (str.to.re "z"))) (re.++ (re.* (re.* (str.to.re "x"))) (re.++ (re.union (re.* (str.to.re "v")) (re.* (str.to.re "ww"))) (re.++ (re.union (re.union (str.to.re "rrr") (str.to.re "sss")) (re.union (str.to.re "ttt") (str.to.re "u"))) (re.++ (re.+ (re.+ (str.to.re "qq"))) (re.++ (re.union (re.* (str.to.re "oo")) (re.* (str.to.re "ppp"))) (re.++ (re.+ (re.+ (str.to.re "n"))) (re.++ (re.* (re.union (str.to.re "ll") (str.to.re "mm"))) (re.++ (re.union (re.union (str.to.re "iii") (str.to.re "j")) (re.+ (str.to.re "k"))) (re.++ (re.union (re.+ (str.to.re "gg")) (re.+ (str.to.re "hh"))) (re.++ (re.* (re.union (str.to.re "eee") (str.to.re "f"))) (re.++ (re.* (re.* (str.to.re "dd"))) (re.++ (re.* (re.* (str.to.re "cc"))) (re.++ (re.union (re.union (str.to.re "9") (str.to.re "aa")) (re.* (str.to.re "b"))) (re.++ (re.union (re.* (str.to.re "777")) (re.+ (str.to.re "8"))) (re.++ (re.* (re.* (str.to.re "666"))) (re.++ (re.+ (re.union (str.to.re "4") (str.to.re "55"))) (re.++ (re.* (re.union (str.to.re "222") (str.to.re "333"))) (re.+ (re.union (str.to.re "00") (str.to.re "1")))))))))))))))))))))))))))))))))))))))))))))))))))
(check-sat)